
Log started (V12.6.1.0) Thu Jan 11 11:12:57 2018


Problem '0109.lp' read.
Read time = 0.02 sec. (0.48 ticks)
Tried aggregator 2 times.
MIP Presolve eliminated 2032 rows and 266 columns.
MIP Presolve modified 342 coefficients.
Aggregator did 44 substitutions.
Reduced MIP has 2356 rows, 1332 columns, and 11872 nonzeros.
Reduced MIP has 1320 binaries, 0 generals, 0 SOSs, and 0 indicators.
Presolve time = 0.05 sec. (24.21 ticks)
Probing fixed 223 vars, tightened 0 bounds.
Probing changed sense of 105 constraints.
Probing time = 0.09 sec. (40.05 ticks)
Tried aggregator 1 time.
MIP Presolve eliminated 219 rows and 223 columns.
MIP Presolve modified 877 coefficients.
Reduced MIP has 2137 rows, 1109 columns, and 10327 nonzeros.
Reduced MIP has 1097 binaries, 0 generals, 0 SOSs, and 0 indicators.
Presolve time = 0.02 sec. (9.54 ticks)
Probing fixed 21 vars, tightened 0 bounds.
Probing changed sense of 4 constraints.
Probing time = 0.06 sec. (35.18 ticks)
Tried aggregator 1 time.
MIP Presolve eliminated 33 rows and 21 columns.
MIP Presolve modified 43 coefficients.
Reduced MIP has 2104 rows, 1088 columns, and 10185 nonzeros.
Reduced MIP has 1076 binaries, 0 generals, 0 SOSs, and 0 indicators.
Presolve time = 0.02 sec. (8.43 ticks)
Probing time = 0.02 sec. (5.32 ticks)
Clique table members: 1458.
MIP emphasis: balance optimality and feasibility.
MIP search method: dynamic search.
Parallel mode: deterministic, using up to 4 threads.
Root relaxation solution time = 0.05 sec. (24.11 ticks)

        Nodes                                         Cuts/
   Node  Left     Objective  IInf  Best Integer    Best Bound    ItCnt     Gap

      0     0        0.0000    93                      0.0000      324         
      0     0        0.0000    79                  MIRcuts: 2      517         
      0     0        0.0303   158                    Cuts: 34     1111         
      0     0        5.7273    83                    Cuts: 30     1269         
      0     0        5.7273   110                    Cuts: 32     1459         
*     0+    0                           27.8485        5.7273            79.43%
      0     2        5.7273    71       27.8485        5.7273     1459   79.43%
Elapsed time = 1.34 sec. (869.19 ticks, tree = 0.00 MB, solutions = 1)
*     5+    5                           26.8182        5.9828            77.69%
     18    12        8.7737    81       26.8182        7.9239     4558   70.45%
    161    48        8.7741    81       26.8182        8.7741    15106   67.28%
    272    87       12.8376   104       26.8182        8.7830    26070   67.25%
*   375   144      integral     0       26.3333        8.7830    32762   66.65%
*   375   144      integral     0       26.3333        8.7830    32762   66.65%
    463   203       16.5758   102       26.3333        8.7861    40728   66.64%
    568   247        9.6667    90       26.3333        9.2529    52080   64.86%
    681   256       25.6242    92       26.3333        9.6667    64067   63.29%
    793   298       12.6605   101       26.3333        9.6667    72020   63.29%
    934   376       14.9071    92       26.3333        9.6667    82558   63.29%
   1460   478       15.7273    35       26.3333       13.8536   114742   47.39%
Elapsed time = 5.36 sec. (3948.67 ticks, tree = 1.74 MB, solutions = 3)
   2054   604       16.0521    96       26.3333       15.7273   149074   40.28%
*  2410+  598                           26.3333       16.0909            38.90%
   2754   632       23.2400   120       26.3333       16.7792   186287   36.28%
   3605   494       24.3105    62       26.3333       19.4524   221322   26.13%

Cover cuts applied:  20
Implied bound cuts applied:  15
Flow cuts applied:  3
Mixed integer rounding cuts applied:  10
Zero-half cuts applied:  14
Gomory fractional cuts applied:  1

Root node processing (before b&c):
  Real time             =    1.36 sec. (868.21 ticks)
Parallel b&c, 4 threads:
  Real time             =    8.58 sec. (6695.63 ticks)
  Sync time (average)   =    0.53 sec.
  Wait time (average)   =    0.54 sec.
                          ------------
Total (root+branch&cut) =    9.94 sec. (7563.84 ticks)

Solution pool: 3 solutions saved.

MIP - Integer optimal, tolerance (0.0001/1e-006):  Objective = 2.6333333330e+001
Current MIP best bound = 2.6331341629e+001 (gap = 0.0019917, 0.01%)
Solution time =    9.95 sec.  Iterations = 246378  Nodes = 4442 (2)
Deterministic time = 7563.85 ticks  (759.96 ticks/sec)


Incumbent solution written to file '0111.sol'.
